WARNING: for repeatability, setting FPU to use double precision
============================[ Problem Statistics ]=============================
|                                                                             |
|  Number of variables:           100                                         |
|  Number of clauses:             449                                         |
|  Parse time:                   0.00 s                                       |
|  Eliminated clauses:           0.00 Mb                                      |
|  Simplification time:          0.00 s                                       |
|                                                                             |
============================[ Search Statistics ]==============================
| Conflicts |          ORIGINAL         |          LEARNT          | Progress |
|           |    Vars  Clauses Literals |    Limit  Clauses Lit/Cl |          |
===============================================================================
|       100 |      98      446     1352 |      163      100      6 |  0.011 % |
|       250 |      98      446     1352 |      179      167      6 |  0.020 % |
===============================================================================
restarts              : 3
conflicts             : 386            (191754 /sec)
decisions             : 467            (0.00 % random) (231992 /sec)
propagations          : 9053           (4497268 /sec)
conflict literals     : 2146           (25.59 % deleted)
Memory used           : 13.00 MB
CPU time              : 0.002013 s

SATISFIABLE
